10	5
0	1	1
1	1	6
2	2	10	5
3	0
4	2	9	2
5	1	7
6	2	8	3
7	1	11
8	1	11
9	1	11
10	1	11
11	0
0	0	0	0	0	0	0
1	3	3	0	0	2	5
2	8	3	0	5	0	0
3	6	0	4	0	5	0
4	3	1	0	0	0	4
5	3	0	0	3	0	0
6	1	3	1	0	3	0
7	1	0	4	4	4	4
8	3	0	0	5	0	0
9	1	4	2	2	3	3
10	5	0	1	0	0	1
11	0	0	0	0	0	0
3	2	2	3	5
